02_yamada/jssst2021/paper/code/color.log
clingo version 5.4.0
Reading from color.lp
Solving...
Answer: 1
color(2,2) color(1,3) color(3,1) color(4,3)
SATISFIABLE

Models       : 1+
Calls        : 1
Time         : 0.020s (Solving: 0.00s 1st Model: 0.00s Unsat: 0.00s)
CPU Time     : 0.000s
